data/mps_files/q3/22_9.mps
NAME foo
ROWS
 N  OBJ
 E  allocateEach[1]
 E  allocateEach[2]
 E  allocateAllCash
 G  findWorstP[1,2]
 G  findWorstP[2,1]
COLUMNS
    z         OBJ       1
    z         findWorstP[1,2]  1
    z         findWorstP[2,1]  1
    cashProportion[1]  allocateAllCash  1
    cashProportion[1]  findWorstP[1,2]  3.9812086949597908e-01
    cashProportion[1]  findWorstP[2,1]  -5.2893261398497837e-01
    cashProportion[2]  allocateAllCash  1
    cashProportion[2]  findWorstP[1,2]  -3.9812086949597908e-01
    cashProportion[2]  findWorstP[2,1]  5.2893261398497837e-01
    MARKER    'MARKER'                 'INTORG'
    x[1,1]    allocateEach[1]  1
    x[1,1]    findWorstP[1,2]  3.1678477585795045e-01
    x[1,1]    findWorstP[2,1]  -9.6107055961070553e-02
    x[1,2]    allocateEach[2]  1
    x[1,2]    findWorstP[1,2]  2.8509435464607052e-01
    x[1,2]    findWorstP[2,1]  -3.7496033005395107e-01
    x[2,1]    allocateEach[1]  1
    x[2,1]    findWorstP[1,2]  -3.1678477585795045e-01
    x[2,1]    findWorstP[2,1]  9.6107055961070553e-02
    x[2,2]    allocateEach[2]  1
    x[2,2]    findWorstP[1,2]  -2.8509435464607052e-01
    x[2,2]    findWorstP[2,1]  3.7496033005395107e-01
    MARKER    'MARKER'                 'INTEND'
RHS
    RHS1      allocateEach[1]  1
    RHS1      allocateEach[2]  1
    RHS1      allocateAllCash  1
BOUNDS
 UP BND1      z         1
 MI BND1      cashProportion[1]
 UP BND1      cashProportion[1]  1
 MI BND1      cashProportion[2]
 UP BND1      cashProportion[2]  1
 BV BND1      x[1,1]  
 BV BND1      x[1,2]  
 BV BND1      x[2,1]  
 BV BND1      x[2,2]  
ENDATA
